num_variables= 12;
max_domain = 49;
domains = [49,49,49,49,49,49,49,49,49,49,49,49];
top = 39424;
num_constraints1= 12;
max_constraints1 = 1176;
max_costs1 = 39424;
num_constraints2= 66;
max_constraints2 = 475398;
max_costs2 = 39424;
func1x = [1,6,8,10,9,2,4,11,7,3,12,5];
num_tuples1 = [49,49,49,49,49,49,49,49,49,49,49,49];
cum_tuples1 = [0,49,98,147,196,245,294,343,392,441,490,539];
costs1 = costs1 = costs1 = costs1 = [33, 0, 33, 1, 34, 2, 34, 3, 34, 4, 33, 5, 32, 6, 42, 7, 32, 8, 42, 9, 33, 10, 33... ]; // array too long to display, dimensions: (30)
 // array too long to display, dimensions: (1176)

func2x = func2x = [6,4,10,3,2,8,3,1,10,3,2,2,4,1,1,7,1,4,6,2,3,5,2,1,7,1,5,8,3,9,2,2,1,2,4,7,9,3,1,... ]; // array too long to display, dimensions: (66)

func2y = func2y = [9,12,12,7,11,9,8,3,11,10,6,4,9,12,2,12,5,11,11,9,9,9,12,9,9,11,12,10,4,12,7,3,10... ]; // array too long to display, dimensions: (66)

num_tuples2 = num_tuples2 = [2401,2401,2401,2401,2401,2401,2401,2401,2401,2401,2401,2401,2401,2401,2401,2401,... ]; // array too long to display, dimensions: (66)

cum_tuples2 = cum_tuples2 = [0,2401,4802,7203,9604,12005,14406,16807,19208,21609,24010,26411,28812,31213,3361... ]; // array too long to display, dimensions: (66)

costs2 = costs2 = costs2 = costs2 = [17, 34, 3, 17, 20, 8, 17, 44, 43, 17, 28, 47, 17, 18, 2, 17, 12, 43, 39424, 38, ... ]; // array too long to display, dimensions: (30)
 // array too long to display, dimensions: (475398)

